365 367 368 369 370 398 397 394 395 396 371 372 373 322 323 324 325 326 327 328 329 366 342 343 344 341 340 330 331 332 333 339 338 337 336 335 334 283 284 285 286 287 280 281 282 279 278 277 276 288 289 290 275 274 273 292 291 294 295 296 293 270 269 272 271 268 267 297 298 266 265 264 263 262 261 260 259 258 299 300 257 256 255 253 254 252 251 250 249 248 241 242 243 244 245 247 246 238 239 240 237 509 510 511 513 512 527 528 529 530 233 234 235 236 232 225 226 189 190 191 192 193 219 218 220 221 222 224 223 217 216 215 214 213 212 211 210 209 194 195 196 197 205 206 207 208 203 204 202 201 200 199 198 184 185 183 182 179 181 180 169 168 162 163 167 166 164 165 154 153 147 148 152 149 150 151 142 143 144 146 145 158 157 159 156 155 160 161 113 112 114 111 110 172 170 171 175 174 173 108 109 107 542 541 543 544 545 546 547 103 104 105 106 115 116 117 126 125 127 128 129 130 131 132 133 134 135 136 141 140 139 137 138 124 69 70 68 67 66 65 72 71 123 122 121 120 118 119 73 74 75 76 77 78 62 64 63 61 60 59 58 57 81 80 79 88 89 95 96 97 94 93 91 92 90 87 86 85 82 83 56 55 53 54 52 51 84 50 49 48 47 44 43 42 39 41 40 35 34 33 38 37 36 32 30 31 29 28 27 26 25 24 21 22 23 12 13 14 15 16 11 10 9 8 17 18 19 20 568 569 570 468 469 470 471 495 518 519 520 494 472 473 474 567 566 565 564 563 562 561 560 559 558 557 556 45 46 555 554 553 552 100 99 98 102 101 551 550 549 548 478 477 479 480 476 475 482 481 483 537 539 538 540 176 177 178 187 188 186 227 228 229 230 231 533 532 531 489 488 534 487 535 536 484 485 486 490 491 492 493 524 525 526 523 521 522 517 514 515 516 506 507 508 302 301 303 304 307 308 505 504 503 502 498 497 496 465 467 466 464 463 462 461 459 460 571 573 572 7 6 5 0 4 3 2 1 458 457 456 455 454 439 443 444 445 442 446 447 448 449 450 441 440 453 452 499 500 501 451 312 311 310 309 313 305 306 319 321 320 318 317 316 314 315 374 375 376 377 378 379 380 381 390 392 393 391 389 388 387 386 385 409 404 405 406 408 407 399 400 403 402 401 360 359 358 357 356 412 411 418 410 384 383 382 431 433 434 435 436 438 437 432 430 429 428 427 426 425 424 423 422 421 420 419 417 413 414 416 415 351 352 353 355 354 349 350 347 348 361 363 362 346 345 364